p icnf
i -10 -6 0
i -9 22 0
i -2 7 0
i 17 18 0
i -7 -20 0
i 3 4 0
i 20 9 0
i 12 14 0
i 21 -12 -1 0
i -17 -16 0
i 8 2 22 0
i -21 -5 -22 0
i -18 2 0
i 8 13 0
i -3 19 0
i 23 -8 0
i -4 -15 -2 0
i -9 15 0
i 19 16 -11 0
i -13 -19 0
i -17 5 0
i 11 6 0
i -14 10 0
q 0
s SATISFIABLE
m 1 -2 -3 4 5 -6 7 8 9 10 11 -12 -13 14 15 -16 17 -18 19 -20 -21 22 23 0
